100
30
14
10
28
31
20
15
18
26
13
32
5
11
20
13
13
29
13
11
5
9
28
5
27
1
32
18
12
7
11
6
1
10
22
32
29
27
32
28
32
10
18
20
4
27
27
31
25
28
28
22
31
21
7
5
13
15
4
19
19
11
22
21
32
6
24
7
30
1
21
30
27
4
2
3
17
29
13
6
18
32
22
23
8
16
32
9
15
28
10
3
20
32
5
2
19
29
8
30
6
3